unsat
(forall ((A (_ BitVec 1))
         (B (_ BitVec 1))
         (C (_ BitVec 1))
         (D (_ BitVec 1))
         (E (_ BitVec 1))
         (F (_ BitVec 1))
         (G (_ BitVec 1))
         (H (_ BitVec 3))
         (I (_ BitVec 32))
         (J (_ BitVec 1))
         (K (_ BitVec 1))
         (L (_ BitVec 36))
         (M (_ BitVec 4))
         (N (_ BitVec 4))
         (O (_ BitVec 1))
         (P (_ BitVec 1))
         (Q (_ BitVec 1))
         (R (_ BitVec 1))
         (S (_ BitVec 1))
         (T (_ BitVec 1))
         (U (_ BitVec 1))
         (V (_ BitVec 1))
         (W (_ BitVec 32))
         (X (_ BitVec 2))
         (Y (_ BitVec 1))
         (Z (_ BitVec 2))
         (A1 (_ BitVec 2))
         (B1 (_ BitVec 5))
         (C1 (_ BitVec 1))
         (D1 (_ BitVec 1))
         (E1 (_ BitVec 1))
         (F1 (_ BitVec 22))
         (G1 (_ BitVec 1))
         (H1 (_ BitVec 1))
         (I1 (_ BitVec 1))
         (J1 (_ BitVec 4))
         (K1 (_ BitVec 1))
         (L1 (_ BitVec 32))
         (M1 (_ BitVec 1))
         (N1 (_ BitVec 1))
         (O1 (_ BitVec 1))
         (P1 (_ BitVec 22))
         (Q1 (_ BitVec 1))
         (R1 (_ BitVec 1))
         (S1 (_ BitVec 1))
         (T1 (_ BitVec 1))
         (U1 (_ BitVec 1))
         (V1 (_ BitVec 1))
         (W1 (_ BitVec 1))
         (X1 (_ BitVec 1))
         (Y1 (_ BitVec 32))
         (Z1 (_ BitVec 1))
         (A2 (_ BitVec 4))
         (B2 (_ BitVec 1))
         (C2 (_ BitVec 22))
         (D2 (_ BitVec 1)))
  (! (let ((a!1 (or (= O #b0)
                    (not (= S1 #b0))
                    (not (= Y #b0))
                    (not (= ((_ extract 0 0) B1) #b1))))
           (a!2 (or ((_ bit2bool 0) K1)
                    (and (= ((_ extract 2 2) J1) #b0)
                         (= ((_ extract 3 3) J1) #b0)
                         (= ((_ extract 1 1) J1) #b0)
                         (= ((_ extract 0 0) J1) #b0))))
           (a!3 (or (not ((_ bit2bool 1) J1))
                    (not (= ((_ extract 0 0) B1) #b1))))
           (a!4 (not (= L (concat ((_ extract 31 0) L) #x0))))
           (a!5 (or (not (= H #b001))
                    (not ((_ bit2bool 1) J1))
                    (and (not (= F #b0)) (not (= B1 #b00000)) (not (= H1 #b0)))))
           (a!6 (or (= H #b000)
                    (not (= V1 #b1))
                    (not (= ((_ extract 0 0) B1) #b1))))
           (a!7 (or (not (= P #b0))
                    (not (= A1 Z))
                    (not (= ((_ extract 0 0) B1) #b1))
                    (not (= ((_ extract 1 1) H) #b1))
                    (not (= T #b1))))
           (a!8 (or (= O #b0)
                    (not (= P #b0))
                    (not (= A1 Z))
                    (not (= ((_ extract 0 0) B1) #b1))
                    (not (= T #b1))))
           (a!9 (or (= O #b0)
                    (not (= V1 #b1))
                    (not (= ((_ extract 0 0) B1) #b1))))
           (a!10 (or (= V1 #b0)
                     (not (= S1 #b1))
                     (and (= ((_ extract 2 2) J1) #b0)
                          (= ((_ extract 1 1) J1) #b0)
                          (= ((_ extract 0 0) J1) #b0))))
           (a!11 (or (not ((_ bit2bool 1) J1))
                     (not (= ((_ extract 12 4) L1) ((_ extract 16 8) L1)))))
           (a!12 (or (= O #b0)
                     (not (= S1 #b0))
                     (not (= P #b0))
                     (not (= ((_ extract 0 0) B1) #b1))))
           (a!13 (or (not ((_ bit2bool 1) H))
                     ((_ bit2bool 0) H1)
                     ((_ bit2bool 0) H)
                     (not (= ((_ extract 0 0) B1) #b1))))
           (a!14 (or (not (= H #b001))
                     ((_ bit2bool 0) H1)
                     (not (= ((_ extract 0 0) B1) #b1))))
           (a!15 (not (or (= W1 #b0)
                          (= ((_ extract 8 8) Y1) #b1)
                          (= ((_ extract 12 12) Y1) #b0))))
           (a!17 (or (= O #b1) (not (= ((_ extract 0 0) J1) #b1))))
           (a!19 (or (not (= H #b001))
                     (not (= P #b0))
                     (not (= A1 Z))
                     (= T #b0)
                     (not (= ((_ extract 0 0) B1) #b1))))
           (a!20 (or (not (= H #b100))
                     (not (= P #b0))
                     (not (= A1 Z))
                     (not (= ((_ extract 0 0) B1) #b1))
                     (not (= T #b1))))
           (a!21 (or (not (= B1 #b00001))
                     (not (= R1 #b0))
                     (not (= ((_ extract 2 2) H) #b1))))
           (a!22 (or (not (= S1 #b0))
                     (not (= ((_ extract 0 0) B1) #b1))
                     (not (= ((_ extract 2 2) H) #b1))))
           (a!23 (or (not ((_ bit2bool 1) H))
                     (not (= S1 #b0))
                     (not (= ((_ extract 0 0) B1) #b1))))
           (a!24 (or (not (= S1 #b0))
                     (= F #b0)
                     (not (= ((_ extract 0 0) B1) #b1))))
           (a!25 (or (= O #b0)
                     (not (= J #b1))
                     (not (= S1 #b0))
                     (not (= ((_ extract 0 0) B1) #b1)))))
     (let ((a!16 (ite (or (= O #b0) (not (= B1 #b00001))) a!15 (= T #b0)))
           (a!18 (and (or (= W1 #b0)
                          (= ((_ extract 8 8) Y1) #b1)
                          (= ((_ extract 12 12) Y1) #b0)
                          (= ((_ extract 9 9) Y1) #b1)
                          (= ((_ extract 11 11) Y1) #b0))
                      a!17)))
     (let ((a!26 (and a!1
                      (not ((_ bit2bool 0) O1))
                      (or (not (= O #b1)) (= H #b000))
                      (or (not (= G #b1)) ((_ bit2bool 0) P))
                      (or (= H #b000)
                          (= V #b0)
                          (not (= K1 #b1))
                          ((_ bit2bool 0) H1)
                          (not (= R1 #b0)))
                      (or (= V1 #b0)
                          ((_ bit2bool 0) C1)
                          (not (= S1 #b1))
                          (not (= Y #b0)))
                      (not ((_ bit2bool 1) L))
                      (not (= X #b01))
                      a!2
                      (or (not ((_ bit2bool 1) J1)) (not (= R1 #b0)))
                      (or (= Q1 #b1) (not ((_ bit2bool 0) J1)))
                      (or (not ((_ bit2bool 0) J1)) (not (= U1 #b1)))
                      (or (not ((_ bit2bool 34) L)) (not ((_ bit2bool 0) J1)))
                      (or (not (= V1 #b1))
                          ((_ bit2bool 0) C1)
                          (not ((_ bit2bool 0) M1))
                          ((_ bit2bool 0) Y))
                      (or (not (= U #b1)) (= ((_ extract 0 0) H) #b1))
                      (or (= V1 #b0) (not (= U #b1)))
                      (or (= B1 #b00000)
                          (not (= S1 #b0))
                          (not ((_ bit2bool 0) J1)))
                      (or (not ((_ bit2bool 0) J1))
                          (= ((_ extract 0 0) B1) #b1))
                      (or (= V #b0) ((_ bit2bool 0) H1) (= S1 #b1))
                      (or (not ((_ bit2bool 33) L)) (not (= O #b1)) (= V1 #b0))
                      (or (not (= G #b1)) (not ((_ bit2bool 0) J)))
                      (or (= V1 #b0) (not (= O #b1)) (not (= S1 #b1)))
                      a!3
                      (or (not ((_ bit2bool 1) J1)) (= ((_ extract 0 0) X) #b1))
                      (or (not ((_ bit2bool 34) L)) (not (= O #b1)) (= V1 #b0))
                      (or (not (= G #b1)) (not (= K1 #b1)))
                      (or ((_ bit2bool 0) H1) (not ((_ bit2bool 0) J1)))
                      (or (= U1 #b0) (not ((_ bit2bool 1) J1)))
                      (or (not ((_ bit2bool 0) J1)) (not (= R1 #b0)) (= J #b1))
                      (or (= J #b1) (= A1 Z) (not ((_ bit2bool 1) J1)))
                      (or (= J #b1) (= A1 Z) (not ((_ bit2bool 0) J1)))
                      (or ((_ bit2bool 12) L1) (not ((_ bit2bool 2) J1)))
                      (or ((_ bit2bool 0) X) (not ((_ bit2bool 0) J1)))
                      (or (not ((_ bit2bool 1) J1)) (not (= B1 #b00000)))
                      (or (= B1 #b00000)
                          (not (= S1 #b0))
                          (not ((_ bit2bool 1) J1)))
                      (or ((_ bit2bool 0) X) (= ((_ extract 2 2) J1) #b0))
                      (or (not ((_ bit2bool 0) E1)) (not ((_ bit2bool 0) J1)))
                      (or (not ((_ bit2bool 0) E1)) (not ((_ bit2bool 1) J1)))
                      (or (= H #b000)
                          (= J #b1)
                          (not (= R1 #b0))
                          (not (= S1 #b1))
                          (= K1 #b0))
                      (or (= V1 #b0) (not (= P #b0)) (not (= S1 #b1)))
                      (or (= V #b0)
                          ((_ bit2bool 0) H1)
                          (not ((_ bit2bool 1) J1))
                          (= ((_ extract 0 0) H) #b1))
                      (or (not (= R1 #b0)) (not (= Z1 #b1)) a!4)
                      (or (= H #b000)
                          (not (= J #b1))
                          (not (= V1 #b1))
                          (not (= S1 #b1)))
                      (or (= Q1 #b1) (= ((_ extract 1 1) J1) #b0))
                      (or (not (= H #b001)) (not (= F #b0)))
                      (or (= Q1 #b1) (= ((_ extract 2 2) J1) #b0))
                      (or (= O #b0)
                          (not (= B1 #b00001))
                          (not (= R1 #b0))
                          ((_ bit2bool 0) M1))
                      (or (not (= F #b1)) (= H #b001))
                      (or (not ((_ bit2bool 0) H))
                          (not ((_ bit2bool 1) H))
                          (not (= Q #b0)))
                      a!5
                      (or ((_ bit2bool 0) M1)
                          (not ((_ bit2bool 1) J1))
                          (= O #b0))
                      (or (not (= P #b0))
                          (not (= A1 Z))
                          (= T #b0)
                          (not ((_ bit2bool 1) J1)))
                      (or (not (= M1 #b1)) (not (= O #b0)))
                      a!6
                      a!7
                      a!8
                      a!9
                      (or (= ((_ extract 2 2) J1) #b0)
                          (= B1 #b00000)
                          (not (= S1 #b0)))
                      (or (= X #b00) (not (= U #b1)))
                      (or (not ((_ bit2bool 2) J1))
                          (= ((_ extract 0 0) B1) #b1))
                      a!10
                      a!11
                      (or (not ((_ bit2bool 0) J1))
                          (= ((_ extract 1 1) B1) #b1))
                      (or (= O #b0)
                          (not (= B1 #b00001))
                          (not (= J #b1))
                          (= T #b0)
                          ((_ bit2bool 0) M1))
                      (or (= H #b000)
                          (not (= V1 #b1))
                          (not (= P #b0))
                          (not (= R1 #b0)))
                      (or (= B1 #b00000) (not (= V1 #b1)) (not (= P #b0)))
                      a!12
                      (or (not ((_ bit2bool 1) H))
                          (not (= K1 #b1))
                          ((_ bit2bool 0) H1)
                          ((_ bit2bool 0) H))
                      (or ((_ bit2bool 0) H1)
                          (not ((_ bit2bool 0) D1))
                          (not (= K1 #b1))
                          (not (= H #b001)))
                      (or (not (= J #b1))
                          (not ((_ bit2bool 1) H))
                          ((_ bit2bool 0) H1)
                          ((_ bit2bool 0) H))
                      (or (= B1 #b00000)
                          (not (= J #b1))
                          (not (= H #b001))
                          ((_ bit2bool 0) H1)
                          (not (= S1 #b0))
                          (not (= V1 #b0))
                          (not (= T #b1)))
                      a!13
                      a!14
                      (or (not (= S1 #b0)) ((_ bit2bool 0) M1) a!16 a!18)
                      a!19
                      (or (not (= B1 #b00001)) (not (= R1 #b0)) (= F #b0))
                      a!20
                      a!21
                      a!22
                      a!23
                      (or (= O #b0)
                          (not (= B1 #b00001))
                          (not (= A1 Z))
                          (not (= R1 #b0))
                          (= T #b0))
                      a!24
                      a!25)))
       (= (INV!slice!1 A
                       B
                       C
                       D
                       E
                       F
                       G
                       H
                       I
                       J
                       K
                       L
                       M
                       N
                       O
                       P
                       Q
                       R
                       S
                       T
                       U
                       V
                       W
                       X
                       Y
                       Z
                       A1
                       B1
                       C1
                       D1
                       E1
                       F1
                       G1
                       H1
                       I1
                       J1
                       K1
                       L1
                       M1
                       N1
                       O1
                       P1
                       Q1
                       R1
                       S1
                       T1
                       U1
                       V1
                       W1
                       X1
                       Y1
                       Z1
                       A2
                       B2
                       C2
                       D2)
          a!26))))
     :weight 0))
